* ENCODING=ISO-8859-1
NAME          CPLEX
ROWS
 N  obj1    
 G  c1      
 G  c2      
 G  c3      
 G  c4      
 G  c5      
 G  c6      
 G  c7      
 G  c8      
 G  c9      
 G  c10     
 G  c11     
 G  c12     
 G  c13     
 G  c14     
 G  c15     
 G  c16     
 G  c17     
 G  c18     
 G  c19     
 G  c20     
 G  c21     
 G  c22     
 G  c23     
 G  c24     
 G  c25     
 G  c26     
 G  c27     
 G  c28     
 G  c29     
 G  c30     
 G  c31     
 G  c32     
 G  c33     
 G  c34     
 G  c35     
 G  c36     
 G  c37     
 G  c38     
 G  c39     
 G  c40     
 G  c41     
 G  c42     
 G  c43     
 G  c44     
 G  c45     
 G  c46     
 G  c47     
 G  c48     
 G  c49     
 G  c50     
 G  c51     
 G  c52     
 G  c53     
 G  c54     
 G  c55     
 G  c56     
 G  c57     
 G  c58     
 G  c59     
 G  c60     
COLUMNS
    MARK0000  'MARKER'                 'INTORG'
    x1        obj1                            1
    x1        c2                            173
    x1        c8                            547
    x1        c12                           644
    x1        c19                           623
    x1        c24                           779
    x1        c32                           809
    x1        c47                           622
    x2        obj1                            1
    x2        c14                           477
    x2        c16                           871
    x2        c37                           405
    x2        c39                           636
    x2        c48                           450
    x3        obj1                            1
    x3        c29                           766
    x3        c34                           570
    x3        c45                           225
    x4        obj1                            1
    x4        c5                            931
    x4        c11                           408
    x4        c13                           736
    x4        c26                           115
    x4        c30                           556
    x4        c48                           349
    x4        c51                           890
    x4        c59                           833
    x5        obj1                            1
    x5        c18                           732
    x5        c22                           106
    x5        c23                           449
    x5        c51                           633
    x6        obj1                            1
    x6        c12                           291
    x6        c18                           209
    x6        c36                           384
    x6        c38                           641
    x6        c44                           845
    x6        c45                           895
    x6        c51                           531
    x7        obj1                            1
    x7        c11                           702
    x7        c12                           337
    x7        c33                           218
    x7        c40                           420
    x7        c41                           463
    x7        c52                           589
    x8        obj1                            1
    x8        c13                           521
    x8        c28                           412
    x8        c44                           331
    x8        c58                           558
    x8        c59                           308
    x9        obj1                            1
    x9        c2                            744
    x9        c4                            414
    x9        c8                            212
    x9        c11                           234
    x9        c13                           145
    x9        c17                           842
    x9        c40                           483
    x9        c51                           352
    x9        c57                           172
    x10       obj1                            1
    x10       c1                            171
    x10       c3                            830
    x10       c7                            380
    x10       c30                           397
    x10       c53                           475
    x11       obj1                            1
    x11       c9                            110
    x11       c15                           987
    x11       c18                           164
    x11       c21                           738
    x11       c22                           327
    x11       c29                           448
    x11       c32                           691
    x11       c48                           570
    x11       c55                           273
    x11       c58                           456
    x12       obj1                            1
    x12       c1                            455
    x12       c10                           943
    x12       c14                           989
    x12       c16                           478
    x12       c20                           715
    x12       c31                           936
    x12       c34                           996
    x12       c47                           875
    x13       obj1                            1
    x13       c14                           699
    x13       c32                           863
    x13       c46                           526
    x13       c47                           635
    x13       c50                           660
    x13       c57                           139
    x14       obj1                            1
    x14       c6                            123
    x14       c14                           919
    x14       c22                           144
    x14       c23                           357
    x14       c37                           756
    x15       obj1                            1
    x15       c24                           491
    x15       c29                           939
    x15       c38                           174
    x16       obj1                            1
    x16       c5                            702
    x16       c11                           279
    x16       c13                           999
    x16       c26                           745
    x16       c32                           711
    x16       c40                           545
    x16       c41                           115
    x16       c51                           972
    x16       c57                           563
    x17       obj1                            1
    x17       c4                            377
    x17       c16                           607
    x17       c23                           791
    x17       c44                           932
    x17       c53                           482
    x18       obj1                            1
    x18       c10                           502
    x18       c13                           912
    x18       c20                           580
    x18       c37                           248
    x18       c44                           183
    x18       c52                           123
    x18       c53                           103
    x18       c56                           850
    x19       obj1                            1
    x19       c19                           596
    x19       c28                           585
    x19       c32                           695
    x19       c38                           614
    x20       obj1                            1
    x20       c3                            373
    x20       c6                            692
    x20       c55                           987
    x21       obj1                            1
    x21       c1                            833
    x21       c7                            563
    x21       c46                           826
    x21       c48                           315
    x21       c55                           616
    x22       obj1                            1
    x22       c18                           366
    x22       c25                           204
    x22       c28                           142
    x22       c54                           303
    x23       obj1                            1
    x23       c6                            604
    x23       c10                           297
    x23       c30                           682
    x23       c34                           344
    x23       c53                           288
    x24       obj1                            1
    x24       c11                           589
    x24       c14                           841
    x24       c47                           849
    x25       obj1                            1
    x25       c8                            890
    x25       c28                           536
    x25       c35                           180
    x25       c40                           398
    x25       c41                           673
    x25       c44                           870
    x26       obj1                            1
    x26       c1                            329
    x26       c2                            993
    x26       c5                            506
    x26       c7                            263
    x26       c8                            765
    x26       c22                           539
    x26       c36                           486
    x26       c40                           853
    x26       c42                           997
    x26       c56                           616
    x27       obj1                            1
    x27       c3                            588
    x27       c6                            912
    x27       c12                           668
    x27       c34                           879
    x27       c47                           968
    x27       c54                           122
    x27       c57                           585
    x28       obj1                            1
    x28       c21                           113
    x28       c27                           832
    x28       c34                           930
    x28       c39                           688
    x29       obj1                            1
    x29       c5                            975
    x29       c20                           680
    x29       c27                           187
    x29       c38                           498
    x29       c49                           195
    x30       obj1                            1
    x30       c10                           932
    x30       c12                           196
    x30       c30                           133
    x30       c46                           751
    x30       c48                           481
    x31       obj1                            1
    x31       c4                            153
    x31       c18                           993
    x31       c20                           210
    x31       c22                           179
    x31       c37                           190
    x31       c48                           593
    x32       obj1                            1
    x32       c5                            724
    x32       c23                           436
    x32       c37                           776
    x32       c39                           295
    x32       c46                           259
    x32       c48                           242
    x32       c58                           820
    x33       obj1                            1
    x33       c6                            362
    x33       c15                           897
    x33       c28                           668
    x33       c43                           363
    x33       c44                           437
    x34       obj1                            1
    x34       c6                            458
    x34       c24                           268
    x34       c37                           229
    x35       obj1                            1
    x35       c8                            988
    x35       c25                           903
    x35       c32                           797
    x35       c33                           280
    x35       c35                           751
    x36       obj1                            1
    x36       c6                            321
    x36       c11                           712
    x36       c24                           227
    x36       c27                           151
    x36       c38                           386
    x36       c51                           294
    x37       obj1                            1
    x37       c12                           212
    x37       c18                           648
    x37       c23                           480
    x37       c35                           168
    x37       c51                           915
    x37       c55                           880
    x37       c56                           370
    x37       c60                           757
    x38       obj1                            1
    x38       c20                           513
    x38       c43                           872
    x38       c57                           502
    x38       c58                           174
    x39       obj1                            1
    x39       c9                            246
    x39       c28                           660
    x39       c37                           709
    x39       c43                           910
    x39       c49                           776
    x39       c52                           528
    x39       c57                           322
    x40       obj1                            1
    x40       c10                           657
    x40       c13                           205
    x40       c16                           886
    x40       c38                           597
    x41       obj1                            1
    x41       c5                            618
    x41       c8                            876
    x41       c30                           348
    x41       c34                           893
    x41       c42                           768
    x42       obj1                            1
    x42       c4                            694
    x43       obj1                            1
    x43       c4                            734
    x43       c10                           149
    x43       c19                           999
    x43       c20                           532
    x43       c24                           581
    x43       c53                           722
    x44       obj1                            1
    x44       c9                            242
    x44       c10                           284
    x44       c14                           301
    x44       c30                           498
    x44       c31                           264
    x44       c33                           142
    x44       c44                           866
    x44       c46                           652
    x44       c47                           407
    x45       obj1                            1
    x45       c6                            837
    x45       c27                           135
    x45       c28                           946
    x45       c32                           278
    x45       c50                           409
    x45       c53                           615
    x45       c54                           686
    x46       obj1                            1
    x46       c19                           247
    x46       c34                           321
    x46       c35                           953
    x46       c40                           778
    x46       c43                           159
    x46       c49                           914
    x46       c56                           777
    x46       c60                           151
    x47       obj1                            1
    x47       c2                            882
    x47       c54                           822
    x47       c56                           731
    x48       obj1                            1
    x48       c8                            294
    x48       c17                           818
    x48       c22                           549
    x48       c53                           876
    x48       c59                           884
    x49       obj1                            1
    x49       c13                           616
    x49       c19                           869
    x49       c24                           702
    x49       c33                           258
    x49       c46                           814
    x49       c57                           543
    x50       obj1                            1
    x50       c35                           890
    x50       c42                           710
    x50       c48                           461
    x50       c53                           900
    x51       obj1                            1
    x51       c21                           284
    x51       c27                           799
    x51       c50                           660
    x51       c60                           940
    x52       obj1                            1
    x52       c4                            663
    x52       c25                           465
    x53       obj1                            1
    x53       c3                            908
    x53       c11                           342
    x53       c17                           405
    x53       c19                           345
    x53       c40                           459
    x53       c46                           813
    x53       c55                           109
    x54       obj1                            1
    x54       c10                           497
    x54       c14                           440
    x54       c20                           684
    x54       c27                           176
    x54       c40                           539
    x54       c49                           913
    x55       obj1                            1
    x55       c2                            854
    x55       c4                            156
    x55       c9                            107
    x55       c18                           853
    x55       c20                           497
    x55       c26                           499
    x55       c35                           586
    x55       c46                           704
    x55       c48                           229
    x55       c51                           505
    x56       obj1                            1
    x56       c10                           709
    x56       c22                           950
    x56       c34                           666
    x57       obj1                            1
    x57       c13                           165
    x57       c31                           982
    x57       c40                           537
    x57       c43                           370
    x57       c59                           772
    x58       obj1                            1
    x58       c8                            441
    x58       c11                           390
    x58       c16                           719
    x58       c30                           326
    x58       c36                           872
    x58       c38                           355
    x58       c45                           591
    x58       c55                           797
    x58       c58                           865
    x59       obj1                            1
    x59       c25                           269
    x59       c45                           848
    x59       c46                           773
    x59       c57                           425
    x60       obj1                            1
    x60       c4                            979
    x60       c15                           375
    x60       c19                           555
    x60       c20                           227
    x60       c22                           734
    x60       c47                           978
    x60       c58                           421
    MARK0001  'MARKER'                 'INTEND'
RHS
    rhs       c1                            894
    rhs       c2                           1823
    rhs       c3                           1350
    rhs       c4                           2085
    rhs       c5                           2228
    rhs       c6                           2155
    rhs       c7                            603
    rhs       c8                           2507
    rhs       c9                            353
    rhs       c10                          2485
    rhs       c11                          1828
    rhs       c12                          1174
    rhs       c13                          2150
    rhs       c14                          2333
    rhs       c15                          1130
    rhs       c16                          1781
    rhs       c17                          1033
    rhs       c18                          1983
    rhs       c19                          2117
    rhs       c20                          2319
    rhs       c21                           568
    rhs       c22                          1764
    rhs       c23                          1257
    rhs       c24                          1524
    rhs       c25                           921
    rhs       c26                           680
    rhs       c27                          1140
    rhs       c28                          1975
    rhs       c29                          1077
    rhs       c30                          1470
    rhs       c31                          1091
    rhs       c32                          2422
    rhs       c33                           449
    rhs       c34                          2800
    rhs       c35                          1764
    rhs       c36                           871
    rhs       c37                          1657
    rhs       c38                          1633
    rhs       c39                           810
    rhs       c40                          2506
    rhs       c41                           626
    rhs       c42                          1238
    rhs       c43                          1337
    rhs       c44                          2232
    rhs       c45                          1280
    rhs       c46                          3059
    rhs       c47                          2667
    rhs       c48                          1845
    rhs       c49                          1399
    rhs       c50                           865
    rhs       c51                          2546
    rhs       c52                           620
    rhs       c53                          2231
    rhs       c54                           967
    rhs       c55                          1831
    rhs       c56                          1672
    rhs       c57                          1626
    rhs       c58                          1647
    rhs       c59                          1399
    rhs       c60                           924
BOUNDS
 LI bnd       x1        0
 LI bnd       x2        0
 LI bnd       x3        0
 LI bnd       x4        0
 LI bnd       x5        0
 LI bnd       x6        0
 LI bnd       x7        0
 LI bnd       x8        0
 LI bnd       x9        0
 LI bnd       x10       0
 LI bnd       x11       0
 LI bnd       x12       0
 LI bnd       x13       0
 LI bnd       x14       0
 LI bnd       x15       0
 LI bnd       x16       0
 LI bnd       x17       0
 LI bnd       x18       0
 LI bnd       x19       0
 LI bnd       x20       0
 LI bnd       x21       0
 LI bnd       x22       0
 LI bnd       x23       0
 LI bnd       x24       0
 LI bnd       x25       0
 LI bnd       x26       0
 LI bnd       x27       0
 LI bnd       x28       0
 LI bnd       x29       0
 LI bnd       x30       0
 LI bnd       x31       0
 LI bnd       x32       0
 LI bnd       x33       0
 LI bnd       x34       0
 LI bnd       x35       0
 LI bnd       x36       0
 LI bnd       x37       0
 LI bnd       x38       0
 LI bnd       x39       0
 LI bnd       x40       0
 LI bnd       x41       0
 LI bnd       x42       0
 LI bnd       x43       0
 LI bnd       x44       0
 LI bnd       x45       0
 LI bnd       x46       0
 LI bnd       x47       0
 LI bnd       x48       0
 LI bnd       x49       0
 LI bnd       x50       0
 LI bnd       x51       0
 LI bnd       x52       0
 LI bnd       x53       0
 LI bnd       x54       0
 LI bnd       x55       0
 LI bnd       x56       0
 LI bnd       x57       0
 LI bnd       x58       0
 LI bnd       x59       0
 LI bnd       x60       0
ENDATA
